unsat
(define-fun fnd_sum ((y1 Int) (y2 Int)) Int (let ((_let_1 (+ y1 y2))) (ite (<= 16 _let_1) _let_1 0)))
39.74user 0.04system 0:39.78elapsed 99%CPU (0avgtext+0avgdata 70328maxresident)k
8inputs+8outputs (0major+13244minor)pagefaults 0swaps
